c CNF
c from Selman's wff generator
p cnf 200  1200
1.0 -99 -199 0
1.0 63 27 0
1.0 -44 -166 0
1.0 -145 -154 0
1.0 179 -176 0
1.0 194 130 0
1.0 173 -141 0
1.0 154 50 0
1.0 -49 -199 0
1.0 -26 3 0
1.0 168 -119 0
1.0 73 17 0
1.0 -192 -135 0
1.0 64 11 0
1.0 152 -89 0
1.0 -139 -55 0
1.0 54 143 0
1.0 -145 -72 0
1.0 190 187 0
1.0 -4 -79 0
1.0 -14 102 0
1.0 -112 197 0
1.0 -86 120 0
1.0 175 124 0
1.0 -66 108 0
1.0 -180 -54 0
1.0 41 145 0
1.0 24 143 0
1.0 -44 -21 0
1.0 18 -25 0
1.0 -145 -184 0
1.0 -107 -139 0
1.0 -46 54 0
1.0 -108 -104 0
1.0 -48 24 0
1.0 -167 32 0
1.0 -52 22 0
1.0 -47 -182 0
1.0 -166 99 0
1.0 37 58 0
1.0 -111 27 0
1.0 -130 -101 0
1.0 125 159 0
1.0 -190 158 0
1.0 -180 67 0
1.0 48 81 0
1.0 179 127 0
1.0 184 131 0
1.0 -157 5 0
1.0 106 80 0
1.0 -38 114 0
1.0 72 24 0
1.0 90 -178 0
1.0 -59 93 0
1.0 19 37 0
1.0 167 -150 0
1.0 155 9 0
1.0 88 -74 0
1.0 -188 14 0
1.0 -37 -21 0
1.0 199 185 0
1.0 77 15 0
1.0 51 146 0
1.0 -96 193 0
1.0 -1 150 0
1.0 24 3 0
1.0 16 165 0
1.0 -186 -178 0
1.0 163 43 0
1.0 -57 -133 0
1.0 -79 -32 0
1.0 24 65 0
1.0 -15 135 0
1.0 138 -124 0
1.0 89 117 0
1.0 95 185 0
1.0 27 98 0
1.0 -31 -32 0
1.0 63 115 0
1.0 -179 -106 0
1.0 41 -20 0
1.0 -144 79 0
1.0 -196 137 0
1.0 -121 -164 0
1.0 62 45 0
1.0 76 -20 0
1.0 135 -84 0
1.0 -189 133 0
1.0 153 137 0
1.0 -16 140 0
1.0 -77 -34 0
1.0 -198 48 0
1.0 -92 -174 0
1.0 -194 -152 0
1.0 36 129 0
1.0 61 147 0
1.0 -84 62 0
1.0 -1 36 0
1.0 70 9 0
1.0 -57 -19 0
1.0 -192 -77 0
1.0 -29 21 0
1.0 149 154 0
1.0 100 -142 0
1.0 4 132 0
1.0 167 190 0
1.0 -198 156 0
1.0 174 -29 0
1.0 -105 -118 0
1.0 -138 64 0
1.0 17 -86 0
1.0 27 119 0
1.0 50 181 0
1.0 171 -117 0
1.0 72 156 0
1.0 184 25 0
1.0 142 162 0
1.0 -25 20 0
1.0 -105 -62 0
1.0 -181 59 0
1.0 40 197 0
1.0 -113 -99 0
1.0 54 200 0
1.0 -24 -40 0
1.0 1 147 0
1.0 167 9 0
1.0 71 26 0
1.0 84 -164 0
1.0 -161 127 0
1.0 26 110 0
1.0 -110 -85 0
1.0 125 -41 0
1.0 -188 -143 0
1.0 152 17 0
1.0 43 -28 0
1.0 192 -153 0
1.0 79 -182 0
1.0 -92 81 0
1.0 -166 98 0
1.0 139 -34 0
1.0 176 -164 0
1.0 -180 107 0
1.0 -134 -21 0
1.0 173 197 0
1.0 -179 101 0
1.0 181 -137 0
1.0 35 -6 0
1.0 -40 49 0
1.0 -12 -182 0
1.0 88 92 0
1.0 -113 161 0
1.0 -158 -23 0
1.0 123 -91 0
1.0 28 77 0
1.0 -83 -36 0
1.0 -137 142 0
1.0 -133 -6 0
1.0 -27 -82 0
1.0 -168 -64 0
1.0 -199 117 0
1.0 20 23 0
1.0 -85 -164 0
1.0 85 80 0
1.0 22 -175 0
1.0 181 70 0
1.0 -152 -7 0
1.0 70 174 0
1.0 90 -16 0
1.0 -39 -154 0
1.0 117 125 0
1.0 5 101 0
1.0 -75 122 0
1.0 191 -80 0
1.0 86 -41 0
1.0 14 -82 0
1.0 98 -97 0
1.0 51 -189 0
1.0 -114 -102 0
1.0 -2 190 0
1.0 -111 -123 0
1.0 2 193 0
1.0 34 102 0
1.0 -184 65 0
1.0 162 165 0
1.0 -153 74 0
1.0 -175 -146 0
1.0 136 126 0
1.0 -48 183 0
1.0 -176 190 0
1.0 92 177 0
1.0 -42 9 0
1.0 173 -171 0
1.0 -44 193 0
1.0 -138 174 0
1.0 -100 -45 0
1.0 -27 67 0
1.0 56 -132 0
1.0 109 -69 0
1.0 -77 178 0
1.0 -148 -168 0
1.0 161 165 0
1.0 -139 1 0
1.0 -45 91 0
1.0 157 183 0
1.0 -115 85 0
1.0 -154 183 0
1.0 160 -128 0
1.0 96 52 0
1.0 -17 -106 0
1.0 -106 -125 0
1.0 15 -179 0
1.0 -162 95 0
1.0 180 -143 0
1.0 -125 72 0
1.0 -200 41 0
1.0 -93 -89 0
1.0 194 104 0
1.0 28 58 0
1.0 37 -71 0
1.0 166 -196 0
1.0 139 171 0
1.0 -43 42 0
1.0 -82 -139 0
1.0 28 88 0
1.0 -192 148 0
1.0 5 169 0
1.0 40 75 0
1.0 -70 111 0
1.0 82 -30 0
1.0 -71 -19 0
1.0 -158 -104 0
1.0 192 -10 0
1.0 157 -125 0
1.0 94 -64 0
1.0 -138 40 0
1.0 151 90 0
1.0 -119 -86 0
1.0 -105 123 0
1.0 27 68 0
1.0 77 52 0
1.0 -176 2 0
1.0 65 196 0
1.0 36 -142 0
1.0 31 -24 0
1.0 -110 174 0
1.0 97 -81 0
1.0 -148 122 0
1.0 173 -142 0
1.0 144 52 0
1.0 48 22 0
1.0 163 -19 0
1.0 -43 -86 0
1.0 -60 -83 0
1.0 164 -42 0
1.0 -164 -21 0
1.0 163 -194 0
1.0 -46 104 0
1.0 -125 123 0
1.0 142 -43 0
1.0 -128 -26 0
1.0 -108 102 0
1.0 -144 -23 0
1.0 44 118 0
1.0 -112 -128 0
1.0 31 -25 0
1.0 148 24 0
1.0 67 -125 0
1.0 -151 10 0
1.0 -112 124 0
1.0 -147 -112 0
1.0 -29 -3 0
1.0 130 -108 0
1.0 -133 147 0
1.0 -171 159 0
1.0 84 42 0
1.0 52 -12 0
1.0 136 21 0
1.0 132 -177 0
1.0 -180 -70 0
1.0 178 -199 0
1.0 -146 -185 0
1.0 -144 158 0
1.0 200 185 0
1.0 197 -153 0
1.0 174 -30 0
1.0 7 -88 0
1.0 158 -167 0
1.0 166 -164 0
1.0 149 35 0
1.0 -192 -182 0
1.0 167 -180 0
1.0 132 -55 0
1.0 85 110 0
1.0 197 -75 0
1.0 42 172 0
1.0 -136 134 0
1.0 -168 -147 0
1.0 -129 94 0
1.0 73 193 0
1.0 -48 -152 0
1.0 61 118 0
1.0 193 100 0
1.0 72 101 0
1.0 35 160 0
1.0 -106 65 0
1.0 -159 114 0
1.0 107 -187 0
1.0 139 -143 0
1.0 61 110 0
1.0 9 69 0
1.0 170 129 0
1.0 88 -177 0
1.0 41 -169 0
1.0 82 -157 0
1.0 -143 64 0
1.0 7 29 0
1.0 -138 121 0
1.0 -8 -27 0
1.0 113 179 0
1.0 -186 -17 0
1.0 45 130 0
1.0 -159 24 0
1.0 166 -26 0
1.0 -106 97 0
1.0 17 78 0
1.0 -104 24 0
1.0 -3 -184 0
1.0 -200 36 0
1.0 165 -177 0
1.0 -1 -190 0
1.0 -16 -175 0
1.0 -71 90 0
1.0 -168 13 0
1.0 36 71 0
1.0 54 193 0
1.0 29 -167 0
1.0 -143 -144 0
1.0 -134 -62 0
1.0 37 -68 0
1.0 -157 -33 0
1.0 -46 105 0
1.0 -176 82 0
1.0 75 -145 0
1.0 111 181 0
1.0 -125 13 0
1.0 74 -104 0
1.0 171 -76 0
1.0 109 -10 0
1.0 114 46 0
1.0 -128 154 0
1.0 -98 1 0
1.0 182 -200 0
1.0 -12 57 0
1.0 -160 -171 0
1.0 46 -13 0
1.0 -22 -108 0
1.0 154 142 0
1.0 95 -144 0
1.0 145 -187 0
1.0 186 -62 0
1.0 118 197 0
1.0 168 79 0
1.0 -92 -64 0
1.0 172 -74 0
1.0 15 -74 0
1.0 -18 -89 0
1.0 75 102 0
1.0 163 120 0
1.0 -117 141 0
1.0 20 -165 0
1.0 28 -63 0
1.0 -136 -73 0
1.0 147 -131 0
1.0 -19 160 0
1.0 -61 12 0
1.0 -132 10 0
1.0 -151 -63 0
1.0 27 28 0
1.0 90 105 0
1.0 -177 -178 0
1.0 108 -33 0
1.0 193 12 0
1.0 24 -171 0
1.0 -181 4 0
1.0 136 -101 0
1.0 181 124 0
1.0 177 -78 0
1.0 53 186 0
1.0 73 188 0
1.0 -6 -131 0
1.0 -7 -63 0
1.0 67 87 0
1.0 -187 -100 0
1.0 24 -17 0
1.0 -95 -114 0
1.0 99 -16 0
1.0 3 110 0
1.0 -40 162 0
1.0 25 141 0
1.0 28 66 0
1.0 -166 -56 0
1.0 -72 -33 0
1.0 -146 142 0
1.0 158 -146 0
1.0 -56 70 0
1.0 -31 154 0
1.0 -94 -177 0
1.0 -42 38 0
1.0 -93 -115 0
1.0 -148 184 0
1.0 -126 45 0
1.0 190 152 0
1.0 -21 12 0
1.0 -165 82 0
1.0 -58 53 0
1.0 -91 -114 0
1.0 -29 -102 0
1.0 85 79 0
1.0 123 -6 0
1.0 -158 -136 0
1.0 147 -97 0
1.0 -178 137 0
1.0 -190 149 0
1.0 63 40 0
1.0 141 11 0
1.0 90 136 0
1.0 -142 128 0
1.0 63 82 0
1.0 -178 -107 0
1.0 -44 91 0
1.0 -40 -124 0
1.0 -164 -176 0
1.0 -187 61 0
1.0 197 -165 0
1.0 93 -15 0
1.0 -96 112 0
1.0 19 86 0
1.0 176 18 0
1.0 -141 -7 0
1.0 183 -112 0
1.0 172 -138 0
1.0 -103 -135 0
1.0 -149 141 0
1.0 -53 115 0
1.0 -200 -146 0
1.0 -164 -27 0
1.0 33 109 0
1.0 -20 -17 0
1.0 -155 31 0
1.0 166 -65 0
1.0 -6 2 0
1.0 -116 -77 0
1.0 23 -61 0
1.0 87 -82 0
1.0 -191 98 0
1.0 115 120 0
1.0 -151 -161 0
1.0 26 178 0
1.0 179 190 0
1.0 67 18 0
1.0 78 -100 0
1.0 182 -165 0
1.0 -63 -19 0
1.0 139 185 0
1.0 146 -172 0
1.0 150 -36 0
1.0 25 90 0
1.0 -107 -32 0
1.0 -132 -56 0
1.0 20 32 0
1.0 50 -69 0
1.0 53 -105 0
1.0 -77 82 0
1.0 -117 -170 0
1.0 59 -177 0
1.0 -8 -14 0
1.0 70 98 0
1.0 -129 -137 0
1.0 -5 29 0
1.0 133 44 0
1.0 125 23 0
1.0 -192 189 0
1.0 165 -17 0
1.0 -31 165 0
1.0 -62 -162 0
1.0 -99 -159 0
1.0 -187 -136 0
1.0 -180 -15 0
1.0 -38 164 0
1.0 152 -130 0
1.0 146 -96 0
1.0 60 -199 0
1.0 -161 64 0
1.0 -23 82 0
1.0 -17 -122 0
1.0 137 -57 0
1.0 21 -46 0
1.0 175 -83 0
1.0 178 -98 0
1.0 -173 160 0
1.0 72 -195 0
1.0 -156 68 0
1.0 196 166 0
1.0 66 -188 0
1.0 191 46 0
1.0 135 -7 0
1.0 104 90 0
1.0 -49 -24 0
1.0 18 -172 0
1.0 40 43 0
1.0 8 64 0
1.0 -52 162 0
1.0 -8 -70 0
1.0 76 -167 0
1.0 56 -140 0
1.0 164 -169 0
1.0 -141 -98 0
1.0 140 -4 0
1.0 68 -104 0
1.0 -66 5 0
1.0 74 -76 0
1.0 -43 67 0
1.0 7 -184 0
1.0 -152 26 0
1.0 123 104 0
1.0 108 -86 0
1.0 190 32 0
1.0 -37 -56 0
1.0 132 -140 0
1.0 7 188 0
1.0 -171 -73 0
1.0 98 132 0
1.0 35 -85 0
1.0 -171 -94 0
1.0 125 -12 0
1.0 67 -141 0
1.0 -81 131 0
1.0 118 43 0
1.0 115 81 0
1.0 13 24 0
1.0 -108 116 0
1.0 10 -107 0
1.0 119 -52 0
1.0 -192 166 0
1.0 -97 155 0
1.0 -197 -58 0
1.0 -139 -113 0
1.0 -136 156 0
1.0 -72 187 0
1.0 93 160 0
1.0 -11 110 0
1.0 76 -179 0
1.0 -134 -33 0
1.0 90 88 0
1.0 -200 -164 0
1.0 -120 -176 0
1.0 162 102 0
1.0 61 86 0
1.0 196 61 0
1.0 40 -148 0
1.0 -180 28 0
1.0 116 -143 0
1.0 106 74 0
1.0 49 31 0
1.0 132 -87 0
1.0 172 -130 0
1.0 191 138 0
1.0 85 80 0
1.0 -108 105 0
1.0 -48 -29 0
1.0 -103 -189 0
1.0 -19 -194 0
1.0 -80 27 0
1.0 156 -7 0
1.0 -144 57 0
1.0 136 179 0
1.0 84 -24 0
1.0 53 -4 0
1.0 -192 62 0
1.0 -56 -68 0
1.0 -94 103 0
1.0 -110 6 0
1.0 62 -172 0
1.0 151 173 0
1.0 -197 108 0
1.0 111 -49 0
1.0 -111 -109 0
1.0 -176 72 0
1.0 -175 88 0
1.0 -94 -114 0
1.0 -85 18 0
1.0 190 -194 0
1.0 101 33 0
1.0 -81 -38 0
1.0 -146 -26 0
1.0 -97 58 0
1.0 -145 109 0
1.0 -22 -92 0
1.0 -109 147 0
1.0 140 9 0
1.0 41 -120 0
1.0 -157 -166 0
1.0 191 69 0
1.0 -126 15 0
1.0 -124 -114 0
1.0 6 -103 0
1.0 49 -192 0
1.0 200 98 0
1.0 -17 -82 0
1.0 47 75 0
1.0 -144 99 0
1.0 -114 85 0
1.0 -198 49 0
1.0 -151 -32 0
1.0 -23 131 0
1.0 29 16 0
1.0 98 -26 0
1.0 -100 94 0
1.0 -193 -108 0
1.0 -192 -52 0
1.0 -101 124 0
1.0 156 -111 0
1.0 42 37 0
1.0 -53 -65 0
1.0 90 -134 0
1.0 28 77 0
1.0 -184 -145 0
1.0 -197 70 0
1.0 -194 -156 0
1.0 -66 -199 0
1.0 -35 130 0
1.0 194 92 0
1.0 26 133 0
1.0 9 -107 0
1.0 -52 2 0
1.0 -72 129 0
1.0 85 -94 0
1.0 92 -143 0
1.0 73 34 0
1.0 -126 -52 0
1.0 185 -24 0
1.0 -130 -79 0
1.0 81 -150 0
1.0 79 -174 0
1.0 -67 -31 0
1.0 174 171 0
1.0 -4 -98 0
1.0 150 -61 0
1.0 85 -126 0
1.0 110 196 0
1.0 -25 -195 0
1.0 12 102 0
1.0 16 -23 0
1.0 -107 61 0
1.0 -172 118 0
1.0 -198 88 0
1.0 14 -131 0
1.0 -126 -88 0
1.0 -83 122 0
1.0 -24 13 0
1.0 36 -151 0
1.0 -11 -14 0
1.0 132 -102 0
1.0 189 131 0
1.0 -62 -56 0
1.0 -144 110 0
1.0 -32 86 0
1.0 98 -56 0
1.0 6 119 0
1.0 -133 24 0
1.0 -125 -13 0
1.0 -144 4 0
1.0 -59 42 0
1.0 151 -130 0
1.0 15 -148 0
1.0 3 131 0
1.0 50 -123 0
1.0 146 24 0
1.0 -37 -38 0
1.0 -41 98 0
1.0 -140 178 0
1.0 107 -128 0
1.0 76 109 0
1.0 39 81 0
1.0 4 -112 0
1.0 135 -114 0
1.0 -152 -2 0
1.0 100 137 0
1.0 -114 192 0
1.0 -120 -200 0
1.0 108 -177 0
1.0 58 158 0
1.0 69 104 0
1.0 -17 -29 0
1.0 -30 -127 0
1.0 -63 -51 0
1.0 -42 -96 0
1.0 -95 138 0
1.0 -115 -27 0
1.0 185 184 0
1.0 87 -42 0
1.0 70 33 0
1.0 159 31 0
1.0 -81 -196 0
1.0 91 -193 0
1.0 -131 38 0
1.0 65 138 0
1.0 -121 49 0
1.0 -90 -160 0
1.0 192 -182 0
1.0 -12 87 0
1.0 83 -167 0
1.0 -160 98 0
1.0 -136 -147 0
1.0 84 151 0
1.0 199 151 0
1.0 111 -122 0
1.0 103 -108 0
1.0 194 23 0
1.0 190 -22 0
1.0 120 7 0
1.0 153 173 0
1.0 123 -103 0
1.0 53 -52 0
1.0 174 60 0
1.0 -167 -117 0
1.0 140 -198 0
1.0 20 -85 0
1.0 -92 116 0
1.0 88 47 0
1.0 -149 122 0
1.0 -174 -143 0
1.0 2 -30 0
1.0 -147 13 0
1.0 11 165 0
1.0 -50 -92 0
1.0 -7 161 0
1.0 -8 -66 0
1.0 -188 -37 0
1.0 -180 -122 0
1.0 -152 129 0
1.0 -142 -79 0
1.0 -43 199 0
1.0 90 151 0
1.0 -112 -18 0
1.0 84 95 0
1.0 132 -31 0
1.0 152 -138 0
1.0 66 42 0
1.0 -120 -185 0
1.0 183 142 0
1.0 -92 87 0
1.0 -104 -160 0
1.0 55 -195 0
1.0 26 -88 0
1.0 25 189 0
1.0 30 -82 0
1.0 -66 59 0
1.0 -200 166 0
1.0 53 -90 0
1.0 -49 -16 0
1.0 11 200 0
1.0 88 -185 0
1.0 173 94 0
1.0 -175 102 0
1.0 160 -64 0
1.0 30 9 0
1.0 99 -147 0
1.0 162 -182 0
1.0 182 138 0
1.0 -123 21 0
1.0 115 184 0
1.0 -86 50 0
1.0 114 -17 0
1.0 25 -56 0
1.0 2 -64 0
1.0 -45 120 0
1.0 58 -145 0
1.0 165 76 0
1.0 -60 -171 0
1.0 -20 -96 0
1.0 112 -194 0
1.0 50 102 0
1.0 165 131 0
1.0 50 -151 0
1.0 95 130 0
1.0 -6 161 0
1.0 132 -106 0
1.0 2 -198 0
1.0 192 161 0
1.0 62 110 0
1.0 40 106 0
1.0 -56 -72 0
1.0 2 83 0
1.0 44 -147 0
1.0 -53 80 0
1.0 -78 11 0
1.0 -172 16 0
1.0 126 -1 0
1.0 106 -96 0
1.0 -167 -51 0
1.0 -134 -119 0
1.0 -65 -46 0
1.0 -126 79 0
1.0 90 137 0
1.0 152 181 0
1.0 181 153 0
1.0 49 96 0
1.0 -146 156 0
1.0 75 -159 0
1.0 5 -7 0
1.0 -85 -26 0
1.0 163 -5 0
1.0 -186 -128 0
1.0 81 -33 0
1.0 -128 99 0
1.0 -55 -128 0
1.0 87 6 0
1.0 13 124 0
1.0 149 -154 0
1.0 159 -106 0
1.0 -34 -16 0
1.0 48 -163 0
1.0 61 -187 0
1.0 115 198 0
1.0 4 112 0
1.0 -35 -113 0
1.0 66 184 0
1.0 -90 -120 0
1.0 135 -77 0
1.0 -40 79 0
1.0 66 -4 0
1.0 -2 59 0
1.0 170 73 0
1.0 -185 134 0
1.0 118 82 0
1.0 -1 -42 0
1.0 -118 -165 0
1.0 44 -74 0
1.0 78 72 0
1.0 131 -71 0
1.0 -143 -105 0
1.0 -39 -92 0
1.0 -174 -52 0
1.0 -93 91 0
1.0 -56 27 0
1.0 101 -25 0
1.0 96 99 0
1.0 -169 -142 0
1.0 47 31 0
1.0 123 17 0
1.0 69 -2 0
1.0 -93 -181 0
1.0 8 -140 0
1.0 164 57 0
1.0 155 -145 0
1.0 86 -12 0
1.0 43 -74 0
1.0 91 -56 0
1.0 -58 -133 0
1.0 113 -92 0
1.0 31 -147 0
1.0 4 -116 0
1.0 60 -139 0
1.0 151 -116 0
1.0 -190 93 0
1.0 149 20 0
1.0 -153 158 0
1.0 -49 55 0
1.0 1 15 0
1.0 -130 -127 0
1.0 -66 44 0
1.0 159 -12 0
1.0 105 168 0
1.0 188 -66 0
1.0 24 14 0
1.0 -69 191 0
1.0 5 -25 0
1.0 -152 36 0
1.0 79 58 0
1.0 -70 -42 0
1.0 10 -13 0
1.0 -78 -84 0
1.0 -98 -142 0
1.0 132 -126 0
1.0 150 -108 0
1.0 -143 194 0
1.0 51 -151 0
1.0 192 43 0
1.0 -55 -120 0
1.0 4 -136 0
1.0 77 7 0
1.0 -132 102 0
1.0 -9 -15 0
1.0 -8 101 0
1.0 -51 30 0
1.0 72 -73 0
1.0 193 -43 0
1.0 178 91 0
1.0 98 164 0
1.0 -65 8 0
1.0 22 94 0
1.0 194 198 0
1.0 27 67 0
1.0 139 -131 0
1.0 -173 -83 0
1.0 174 24 0
1.0 187 68 0
1.0 -75 11 0
1.0 -104 149 0
1.0 -146 -14 0
1.0 80 28 0
1.0 -159 -96 0
1.0 179 -77 0
1.0 100 87 0
1.0 -154 123 0
1.0 -133 62 0
1.0 -10 -52 0
1.0 -65 -75 0
1.0 -103 200 0
1.0 -96 113 0
1.0 189 74 0
1.0 -160 -49 0
1.0 -172 -112 0
1.0 -174 -68 0
1.0 -120 -74 0
1.0 -149 67 0
1.0 -67 -92 0
1.0 4 -104 0
1.0 177 -62 0
1.0 111 56 0
1.0 -168 -193 0
1.0 -61 -127 0
1.0 -1 -63 0
1.0 -130 -92 0
1.0 -183 -111 0
1.0 -14 -193 0
1.0 -54 -60 0
1.0 116 179 0
1.0 171 31 0
1.0 158 -149 0
1.0 -11 -176 0
1.0 -67 106 0
1.0 16 92 0
1.0 84 -15 0
1.0 -75 -148 0
1.0 126 146 0
1.0 -177 -99 0
1.0 47 141 0
1.0 -116 -198 0
1.0 103 -131 0
1.0 -23 -69 0
1.0 83 -169 0
1.0 -117 144 0
1.0 -90 22 0
1.0 120 -68 0
1.0 9 -92 0
1.0 -90 -19 0
1.0 -150 -139 0
1.0 7 60 0
1.0 29 -121 0
1.0 -65 -195 0
1.0 17 -127 0
1.0 -195 22 0
1.0 -114 126 0
1.0 -145 33 0
1.0 172 -107 0
1.0 166 -144 0
1.0 -65 -115 0
1.0 110 -126 0
1.0 52 106 0
1.0 127 165 0
1.0 91 176 0
1.0 -8 -39 0
1.0 -145 -195 0
1.0 -138 25 0
1.0 -139 42 0
1.0 -167 16 0
1.0 121 37 0
1.0 1 114 0
1.0 -89 132 0
1.0 171 -54 0
1.0 48 -33 0
1.0 -58 -129 0
1.0 170 -119 0
1.0 -134 19 0
1.0 -55 21 0
1.0 -134 191 0
1.0 -122 71 0
1.0 125 -196 0
1.0 -29 32 0
1.0 160 -144 0
1.0 63 -126 0
1.0 144 -22 0
1.0 42 -153 0
1.0 -143 199 0
1.0 -70 -118 0
1.0 -113 -164 0
1.0 195 -123 0
1.0 67 -108 0
1.0 -33 -151 0
1.0 -173 175 0
1.0 -127 29 0
1.0 -28 187 0
1.0 104 90 0
1.0 -53 57 0
1.0 179 183 0
1.0 -90 -86 0
1.0 37 97 0
1.0 72 -74 0
1.0 102 -11 0
1.0 198 -200 0
1.0 -89 -117 0
1.0 -174 -74 0
1.0 -56 -190 0
1.0 76 -171 0
1.0 -68 -166 0
1.0 -40 -143 0
1.0 154 -2 0
1.0 1 96 0
1.0 12 -169 0
1.0 -42 18 0
1.0 8 135 0
1.0 -105 -109 0
1.0 -74 -116 0
1.0 58 46 0
1.0 -48 124 0
1.0 -19 13 0
1.0 181 168 0
1.0 -186 -153 0
1.0 87 -161 0
1.0 -70 -71 0
1.0 187 74 0
1.0 120 -110 0
1.0 33 16 0
1.0 28 152 0
1.0 119 -96 0
1.0 48 -149 0
1.0 -110 -173 0
1.0 -44 89 0
1.0 162 178 0
1.0 87 -128 0
1.0 -144 -63 0
1.0 -15 -51 0
1.0 147 -10 0
1.0 -159 134 0
1.0 107 -53 0
1.0 -142 -168 0
1.0 -146 53 0
1.0 -181 -32 0
1.0 94 -123 0
1.0 173 -74 0
1.0 -83 78 0
1.0 -11 -41 0
1.0 94 155 0
1.0 -123 46 0
1.0 -98 121 0
1.0 153 53 0
1.0 -175 -96 0
1.0 169 193 0
1.0 70 180 0
1.0 -21 -2 0
1.0 -156 64 0
1.0 -109 87 0
1.0 8 -48 0
1.0 100 85 0
1.0 180 -158 0
1.0 151 88 0
1.0 -68 93 0
1.0 94 99 0
1.0 -162 153 0
1.0 40 76 0
1.0 123 160 0
1.0 45 12 0
1.0 -170 -119 0
1.0 -7 174 0
1.0 -66 -42 0
1.0 140 -166 0
1.0 -118 -138 0
1.0 13 -48 0
1.0 -8 11 0
1.0 23 -56 0
1.0 -174 -49 0
1.0 22 53 0
1.0 94 16 0
1.0 -181 56 0
1.0 193 106 0
1.0 -153 -59 0
1.0 70 100 0
1.0 155 -87 0
1.0 -136 -196 0
1.0 49 -161 0
1.0 -177 -91 0
1.0 147 -109 0
1.0 -14 -111 0
1.0 -169 86 0
1.0 -185 -138 0
1.0 25 -13 0
1.0 -9 175 0
1.0 -135 -161 0
1.0 52 -173 0
1.0 -82 124 0
1.0 34 82 0
1.0 167 -189 0
1.0 126 -170 0
1.0 -183 -158 0
1.0 132 26 0
1.0 -187 46 0
1.0 19 46 0
1.0 -170 174 0
1.0 55 58 0
1.0 -47 -46 0
1.0 -16 -63 0
1.0 -20 -31 0
1.0 56 35 0
1.0 80 196 0
1.0 -41 117 0
1.0 91 -194 0
1.0 -52 19 0
1.0 65 140 0
1.0 2 191 0
1.0 -21 65 0
1.0 -100 -191 0
1.0 186 199 0
1.0 116 76 0
1.0 -69 -51 0
1.0 69 -118 0
1.0 57 87 0
1.0 77 89 0
1.0 -154 54 0
1.0 45 92 0
1.0 91 109 0
1.0 185 94 0
1.0 -144 163 0
1.0 -81 -191 0
1.0 -78 -158 0
1.0 46 -77 0
1.0 130 -26 0
1.0 118 83 0
1.0 192 -62 0
1.0 156 26 0
1.0 -188 3 0
1.0 193 58 0
1.0 15 1 0
1.0 77 -60 0
1.0 111 -181 0
1.0 -186 27 0
1.0 41 162 0
1.0 191 -101 0
1.0 -13 122 0
1.0 127 -57 0
1.0 81 -145 0
1.0 4 -11 0
1.0 -191 -78 0
1.0 104 -94 0
1.0 55 25 0
1.0 126 -63 0
1.0 184 -26 0
1.0 82 -92 0
1.0 -36 40 0
1.0 -50 179 0
1.0 56 -62 0
1.0 -155 39 0
1.0 64 -112 0
1.0 -174 -95 0
1.0 120 134 0
1.0 -26 103 0
1.0 -142 -84 0
1.0 63 -55 0
1.0 116 49 0
1.0 88 -179 0
1.0 -90 136 0
1.0 30 -65 0
1.0 -198 86 0
1.0 188 -116 0
1.0 -200 185 0
1.0 -39 -152 0
1.0 200 55 0
1.0 34 -105 0
1.0 -40 176 0
1.0 40 5 0
1.0 90 171 0
1.0 86 145 0
1.0 -129 -126 0
1.0 -77 126 0
1.0 -181 146 0
1.0 -50 1 0
1.0 -176 122 0
1.0 126 178 0
1.0 148 113 0
1.0 -57 -97 0
1.0 -22 67 0
1.0 -192 -73 0
1.0 -18 139 0
1.0 -139 -122 0
1.0 -43 -115 0
1.0 -92 182 0
1.0 95 -75 0
1.0 -172 -193 0
1.0 60 88 0
